(set-info :smt-lib-version 2.0)
(set-logic ALL)
; variable declaration
(declare-const dc_2 (_ BitVec 1))
(declare-const dc_1 (_ BitVec 64))
(declare-const t_1 (_ BitVec 64))
(declare-const m_1 (_ BitVec 64))
(declare-const carry_1 (_ BitVec 1))
(declare-const r_1 (_ BitVec 64))
(declare-const NN_0 (_ BitVec 64))
(declare-const T0NH_1 (_ BitVec 64))
(declare-const mNL_1 (_ BitVec 64))
(declare-const N_0 (_ BitVec 64))
(declare-const c_1 (_ BitVec 1))
(declare-const mNH_1 (_ BitVec 64))
(declare-const T0_0 (_ BitVec 64))
(declare-const b_1 (_ BitVec 1))
(declare-const s_1 (_ BitVec 64))
(declare-const T1_0 (_ BitVec 64))
(declare-const f_1 (_ BitVec 1))
; range precondition and program 
(assert (bvult (bvadd (bvmul ((_ zero_extend 64) T0_0) #x00000000000000000000000000000001) (bvmul ((_ zero_extend 64) T1_0) #x00000000000000010000000000000000)) (bvadd (bvmul ((_ zero_extend 64) #x0000000000000000) #x00000000000000000000000000000001) (bvmul ((_ zero_extend 64) N_0) #x00000000000000010000000000000000))))
(assert (and (= T0NH_1 ((_ extract 127 64) (bvmul ((_ zero_extend 64) T0_0) ((_ zero_extend 64) NN_0)))) (= m_1 ((_ extract 63 0) (bvmul ((_ zero_extend 64) T0_0) ((_ zero_extend 64) NN_0))))))
(assert (and (= mNH_1 ((_ extract 127 64) (bvmul ((_ zero_extend 64) m_1) ((_ zero_extend 64) N_0)))) (= mNL_1 ((_ extract 63 0) (bvmul ((_ zero_extend 64) m_1) ((_ zero_extend 64) N_0))))))
(assert (and (= carry_1 ((_ extract 64 64) (bvadd ((_ zero_extend 1) mNL_1) ((_ zero_extend 1) T0_0)))) (= dc_1 ((_ extract 63 0) (bvadd ((_ zero_extend 1) mNL_1) ((_ zero_extend 1) T0_0))))))
(assert (and (= c_1 ((_ extract 64 64) (bvadd (bvadd ((_ zero_extend 1) mNH_1) ((_ zero_extend 1) T1_0)) ((_ zero_extend 64) carry_1)))) (= t_1 ((_ extract 63 0) (bvadd (bvadd ((_ zero_extend 1) mNH_1) ((_ zero_extend 1) T1_0)) ((_ zero_extend 64) carry_1))))))
(assert (and (= b_1 ((_ extract 64 64) (bvsub ((_ zero_extend 1) t_1) ((_ zero_extend 1) N_0)))) (= s_1 ((_ extract 63 0) (bvsub ((_ zero_extend 1) t_1) ((_ zero_extend 1) N_0))))))
(assert (and (= f_1 ((_ extract 1 1) (bvsub ((_ zero_extend 1) c_1) ((_ zero_extend 1) b_1)))) (= dc_2 ((_ extract 0 0) (bvsub ((_ zero_extend 1) c_1) ((_ zero_extend 1) b_1))))))
(assert (= r_1 (ite (= f_1 #b1) t_1 s_1)))
; algebraic precondition and program
(assert (and (eqmodP1 (PConst (bv2nat N_0)) (PConst 1) (PConst 2)) (eqmodP1 (PAdd (PMul (PConst (bv2nat N_0)) (PConst (bv2nat NN_0))) (PConst 1)) (PConst 0) (PPow (PConst 2) 64))))
(assert (eqP (PAdd (PConst (bv2nat m_1)) (PMul (PConst (bv2nat T0NH_1)) (PConst 18446744073709551616))) (PMul (PConst (bv2nat T0_0)) (PConst (bv2nat NN_0)))))
(assert (eqP (PAdd (PConst (bv2nat mNL_1)) (PMul (PConst (bv2nat mNH_1)) (PConst 18446744073709551616))) (PMul (PConst (bv2nat m_1)) (PConst (bv2nat N_0)))))
(assert (eqP (PAdd (PConst (bv2nat dc_1)) (PMul (PConst (bv2nat carry_1)) (PConst 18446744073709551616))) (PAdd (PConst (bv2nat mNL_1)) (PConst (bv2nat T0_0)))))
(assert (eqP (PMul (PConst (bv2nat carry_1)) (PSub (PConst (bv2nat carry_1)) (PConst 1))) (PConst 0)))
(assert (eqP (PAdd (PConst (bv2nat t_1)) (PMul (PConst (bv2nat c_1)) (PConst 18446744073709551616))) (PAdd (PAdd (PConst (bv2nat mNH_1)) (PConst (bv2nat T1_0))) (PConst (bv2nat carry_1)))))
(assert (eqP (PMul (PConst (bv2nat c_1)) (PSub (PConst (bv2nat c_1)) (PConst 1))) (PConst 0)))
(assert (eqP (PAdd (PSub (PConst (bv2nat t_1)) (PConst (bv2nat N_0))) (PMul (PConst (bv2nat b_1)) (PConst 18446744073709551616))) (PConst (bv2nat s_1))))
(assert (eqP (PMul (PConst (bv2nat b_1)) (PSub (PConst (bv2nat b_1)) (PConst 1))) (PConst 0)))
(assert (eqP (PAdd (PSub (PConst (bv2nat c_1)) (PConst (bv2nat b_1))) (PMul (PConst (bv2nat f_1)) (PConst 2))) (PConst (bv2nat dc_2))))
(assert (eqP (PMul (PConst (bv2nat f_1)) (PSub (PConst (bv2nat f_1)) (PConst 1))) (PConst 0)))
(assert (eqP (PConst (bv2nat r_1)) (PAdd (PMul (PConst (bv2nat f_1)) (PConst (bv2nat t_1))) (PMul (PSub (PConst 1) (PConst (bv2nat f_1))) (PConst (bv2nat s_1))))))
; postcondition
(assert (not (and true (eqmodP1 (PAdd (PConst 0) (PMul (PConst (bv2nat r_1)) (PPow (PConst 2) 64))) (PAdd (PConst (bv2nat T0_0)) (PMul (PConst (bv2nat T1_0)) (PPow (PConst 2) 64))) (PConst (bv2nat N_0))))))
; check
(check-sat)
(exit)
